c ind 10 158 159 161 162 164 165 167 168 170 0
c ind 171 173 174 176 177 179 180 23 25 27 0
c ind 29 3 31 33 35 37 4 56 57 59 0
c ind 6 60 62 63 65 66 68 69 7 71 0
c ind 72 74 75 77 78 0
p cnf 200 544
-1 -2 5 0
-1 2 8 0
-100 101 0
-100 30 0
-101 102 0
-101 28 0
-102 103 0
-102 21 0
-103 -27 4 0
-103 -4 27 0
-104 -105 11 0
-104 105 111 0
-105 106 0
-105 36 0
-106 107 0
-106 34 0
-107 108 0
-107 32 0
-108 109 0
-108 30 0
-109 110 0
-109 28 0
-11 -4 6 0
-11 -6 4 0
-110 103 0
-110 45 0
-111 -112 11 0
-111 112 118 0
-112 113 0
-112 36 0
-113 114 0
-113 34 0
-114 115 0
-114 32 0
-115 116 0
-115 30 0
-116 117 0
-116 28 0
-117 103 0
-117 86 0
-118 -119 11 0
-118 119 125 0
-119 120 0
-119 36 0
-12 -13 14 0
-12 13 5 0
-120 121 0
-120 34 0
-121 122 0
-121 32 0
-122 123 0
-122 30 0
-123 124 0
-123 28 0
-124 103 0
-124 95 0
-125 -126 11 0
-125 126 132 0
-126 127 0
-126 36 0
-127 128 0
-127 34 0
-128 129 0
-128 32 0
-129 130 0
-129 30 0
-13 -10 4 0
-13 -4 10 0
-130 131 0
-130 20 0
-131 -29 4 0
-131 -4 29 0
-132 -133 11 0
-132 133 138 0
-133 134 0
-133 36 0
-134 135 0
-134 34 0
-135 136 0
-135 32 0
-136 137 0
-136 30 0
-137 131 0
-137 44 0
-138 -139 11 0
-138 139 144 0
-139 140 0
-139 36 0
-14 -15 11 0
-14 15 38 0
-140 141 0
-140 34 0
-141 142 0
-141 32 0
-142 143 0
-142 19 0
-143 -31 4 0
-143 -4 31 0
-144 -145 149 0
-144 145 181 0
-145 146 0
-145 36 0
-146 147 0
-146 34 0
-147 148 0
-147 32 0
-148 143 0
-148 43 0
-149 -150 11 0
-149 150 5 0
-15 16 0
-15 36 0
-150 151 0
-150 178 0
-151 152 0
-151 175 0
-152 153 0
-152 172 0
-153 154 0
-153 169 0
-154 155 0
-154 166 0
-155 156 0
-155 163 0
-156 157 0
-156 160 0
-157 -158 159 0
-157 -159 158 0
-16 17 0
-16 34 0
-160 -161 162 0
-160 -162 161 0
-163 -164 165 0
-163 -165 164 0
-166 -167 168 0
-166 -168 167 0
-169 -170 171 0
-169 -171 170 0
-17 18 0
-17 32 0
-172 -173 174 0
-172 -174 173 0
-175 -176 177 0
-175 -177 176 0
-178 -179 180 0
-178 -180 179 0
-18 19 0
-18 30 0
-181 -182 5 0
-181 182 186 0
-182 183 0
-182 36 0
-183 184 0
-183 34 0
-184 185 0
-184 32 0
-185 143 0
-185 84 0
-186 -187 5 0
-186 187 191 0
-187 188 0
-187 36 0
-188 189 0
-188 34 0
-189 190 0
-189 32 0
-19 20 0
-19 28 0
-190 143 0
-190 93 0
-191 -192 11 0
-191 192 196 0
-192 193 0
-192 36 0
-193 194 0
-193 34 0
-194 195 0
-194 32 0
-195 101 0
-195 143 0
-196 -197 11 0
-196 197 5 0
-197 198 0
-197 36 0
-198 199 0
-198 34 0
-199 200 0
-199 32 0
-2 -3 4 0
-2 -4 3 0
-20 21 0
-20 26 0
-200 109 0
-200 143 0
-21 22 0
-21 24 0
-22 -23 7 0
-22 -7 23 0
-24 -25 7 0
-24 -7 25 0
-26 -27 7 0
-26 -7 27 0
-28 -29 7 0
-28 -7 29 0
-30 -31 7 0
-30 -7 31 0
-32 -33 7 0
-32 -7 33 0
-34 -35 7 0
-34 -7 35 0
-36 -37 7 0
-36 -7 37 0
-38 -39 47 0
-38 39 79 0
-39 36 0
-39 40 0
-40 34 0
-40 41 0
-41 32 0
-41 42 0
-42 30 0
-42 43 0
-43 28 0
-43 44 0
-44 26 0
-44 45 0
-45 24 0
-45 46 0
-46 -23 4 0
-46 -4 23 0
-47 -48 11 0
-47 48 5 0
-48 49 0
-48 76 0
-49 50 0
-49 73 0
-5 -6 7 0
-5 -7 6 0
-50 51 0
-50 70 0
-51 52 0
-51 67 0
-52 53 0
-52 64 0
-53 54 0
-53 61 0
-54 55 0
-54 58 0
-55 -56 57 0
-55 -57 56 0
-58 -59 60 0
-58 -60 59 0
-61 -62 63 0
-61 -63 62 0
-64 -65 66 0
-64 -66 65 0
-67 -68 69 0
-67 -69 68 0
-7 0
-70 -71 72 0
-70 -72 71 0
-73 -74 75 0
-73 -75 74 0
-76 -77 78 0
-76 -78 77 0
-79 -80 11 0
-79 80 88 0
-8 -9 11 0
-8 9 12 0
-80 36 0
-80 81 0
-81 34 0
-81 82 0
-82 32 0
-82 83 0
-83 30 0
-83 84 0
-84 28 0
-84 85 0
-85 26 0
-85 86 0
-86 22 0
-86 87 0
-87 -25 4 0
-87 -4 25 0
-88 -89 5 0
-88 89 96 0
-89 36 0
-89 90 0
-9 -10 7 0
-9 -7 10 0
-90 34 0
-90 91 0
-91 32 0
-91 92 0
-92 30 0
-92 93 0
-93 28 0
-93 94 0
-94 26 0
-94 95 0
-95 46 0
-95 87 0
-96 -97 47 0
-96 97 104 0
-97 36 0
-97 98 0
-98 34 0
-98 99 0
-99 100 0
-99 32 0
1 -2 -5 0
1 -5 -8 0
1 0
1 2 -8 0
100 -101 -30 0
101 -102 -28 0
102 -21 -103 0
103 -27 -4 0
103 27 4 0
104 -105 -11 0
104 -11 -111 0
104 105 -111 0
105 -106 -36 0
106 -107 -34 0
107 -108 -32 0
108 -109 -30 0
109 -110 -28 0
11 -6 -4 0
11 6 4 0
110 -45 -103 0
111 -11 -118 0
111 -112 -11 0
111 112 -118 0
112 -113 -36 0
113 -114 -34 0
114 -115 -32 0
115 -116 -30 0
116 -117 -28 0
117 -86 -103 0
118 -11 -125 0
118 -119 -11 0
118 119 -125 0
119 -120 -36 0
12 -13 -14 0
12 -14 -5 0
12 13 -5 0
120 -121 -34 0
121 -122 -32 0
122 -123 -30 0
123 -124 -28 0
124 -95 -103 0
125 -11 -132 0
125 -126 -11 0
125 126 -132 0
126 -127 -36 0
127 -128 -34 0
128 -129 -32 0
129 -130 -30 0
13 -10 -4 0
13 10 4 0
130 -20 -131 0
131 -29 -4 0
131 29 4 0
132 -11 -138 0
132 -133 -11 0
132 133 -138 0
133 -134 -36 0
134 -135 -34 0
135 -136 -32 0
136 -137 -30 0
137 -44 -131 0
138 -11 -144 0
138 -139 -11 0
138 139 -144 0
139 -140 -36 0
14 -11 -38 0
14 -15 -11 0
14 15 -38 0
140 -141 -34 0
141 -142 -32 0
142 -19 -143 0
143 -31 -4 0
143 31 4 0
144 -145 -149 0
144 -149 -181 0
144 145 -181 0
145 -146 -36 0
146 -147 -34 0
147 -148 -32 0
148 -43 -143 0
149 -11 -5 0
149 -150 -11 0
149 150 -5 0
15 -16 -36 0
150 -151 -178 0
151 -152 -175 0
152 -153 -172 0
153 -154 -169 0
154 -155 -166 0
155 -156 -163 0
156 -157 -160 0
157 -158 -159 0
157 158 159 0
16 -17 -34 0
160 -161 -162 0
160 161 162 0
163 -164 -165 0
163 164 165 0
166 -167 -168 0
166 167 168 0
169 -170 -171 0
169 170 171 0
17 -18 -32 0
172 -173 -174 0
172 173 174 0
175 -176 -177 0
175 176 177 0
178 -179 -180 0
178 179 180 0
18 -19 -30 0
181 -182 -5 0
181 -5 -186 0
181 182 -186 0
182 -183 -36 0
183 -184 -34 0
184 -185 -32 0
185 -84 -143 0
186 -187 -5 0
186 -5 -191 0
186 187 -191 0
187 -188 -36 0
188 -189 -34 0
189 -190 -32 0
19 -20 -28 0
190 -93 -143 0
191 -11 -196 0
191 -192 -11 0
191 192 -196 0
192 -193 -36 0
193 -194 -34 0
194 -195 -32 0
195 -101 -143 0
196 -11 -5 0
196 -197 -11 0
196 197 -5 0
197 -198 -36 0
198 -199 -34 0
199 -200 -32 0
2 -3 -4 0
2 3 4 0
20 -21 -26 0
200 -109 -143 0
21 -22 -24 0
22 -23 -7 0
22 23 7 0
24 -25 -7 0
24 25 7 0
26 -27 -7 0
26 27 7 0
28 -29 -7 0
28 29 7 0
30 -31 -7 0
30 31 7 0
32 -33 -7 0
32 33 7 0
34 -35 -7 0
34 35 7 0
36 -37 -7 0
36 37 7 0
38 -39 -47 0
38 -47 -79 0
38 39 -79 0
39 -40 -36 0
4 0
40 -41 -34 0
41 -42 -32 0
42 -43 -30 0
43 -44 -28 0
44 -45 -26 0
45 -46 -24 0
46 -23 -4 0
46 23 4 0
47 -11 -5 0
47 -48 -11 0
47 48 -5 0
48 -49 -76 0
49 -50 -73 0
5 -6 -7 0
5 6 7 0
50 -51 -70 0
51 -52 -67 0
52 -53 -64 0
53 -54 -61 0
54 -55 -58 0
55 -56 -57 0
55 56 57 0
58 -59 -60 0
58 59 60 0
61 -62 -63 0
61 62 63 0
64 -65 -66 0
64 65 66 0
67 -68 -69 0
67 68 69 0
70 -71 -72 0
70 71 72 0
73 -74 -75 0
73 74 75 0
76 -77 -78 0
76 77 78 0
79 -11 -88 0
79 -80 -11 0
79 80 -88 0
8 -11 -12 0
8 -9 -11 0
8 9 -12 0
80 -81 -36 0
81 -82 -34 0
82 -83 -32 0
83 -84 -30 0
84 -85 -28 0
85 -86 -26 0
86 -22 -87 0
87 -25 -4 0
87 25 4 0
88 -5 -96 0
88 -89 -5 0
88 89 -96 0
89 -90 -36 0
9 -10 -7 0
9 10 7 0
90 -91 -34 0
91 -92 -32 0
92 -93 -30 0
93 -94 -28 0
94 -95 -26 0
95 -46 -87 0
96 -47 -104 0
96 -97 -47 0
96 97 -104 0
97 -98 -36 0
98 -99 -34 0
99 -100 -32 0
